c Generated map
c Size: 9 * 9, weights in range: 1 to 10, walls: True, with ratio 0.1
c dim 6 of 7
c
p sp 81 117
c graph contains 81 nodes and 117 arcs
c
a 1 10 5
a 10 1 5
a 1 2 6
a 2 1 6
a 2 11 3
a 11 2 3
a 2 3 3
a 3 2 3
a 5 14 3
a 14 5 3
a 5 6 7
a 6 5 7
a 6 15 3
a 15 6 3
a 6 7 4
a 7 6 4
a 7 16 7
a 16 7 7
a 7 8 6
a 8 7 6
a 8 17 5
a 17 8 5
a 8 9 9
a 9 8 9
a 9 18 1
a 18 9 1
a 10 19 8
a 19 10 8
a 10 11 2
a 11 10 2
a 11 20 4
a 20 11 4
a 13 14 6
a 14 13 6
a 14 23 3
a 23 14 3
a 14 15 2
a 15 14 2
a 15 24 2
a 24 15 2
a 15 16 3
a 16 15 3
a 16 25 1
a 25 16 1
a 16 17 7
a 17 16 7
a 17 26 7
a 26 17 7
a 17 18 7
a 18 17 7
a 19 28 1
a 28 19 1
a 19 20 6
a 20 19 6
a 20 29 6
a 29 20 6
a 23 32 3
a 32 23 3
a 23 24 10
a 24 23 10
a 24 33 3
a 33 24 3
a 24 25 7
a 25 24 7
a 25 34 4
a 34 25 4
a 25 26 10
a 26 25 10
a 26 35 6
a 35 26 6
a 28 37 10
a 37 28 10
a 28 29 4
a 29 28 4
a 29 38 4
a 38 29 4
a 29 30 8
a 30 29 8
a 30 39 8
a 39 30 8
a 30 31 9
a 31 30 9
a 31 40 2
a 40 31 2
a 31 32 2
a 32 31 2
a 32 41 6
a 41 32 6
a 32 33 6
a 33 32 6
a 33 42 8
a 42 33 8
a 33 34 1
a 34 33 1
a 34 43 6
a 43 34 6
a 34 35 1
a 35 34 1
a 35 44 4
a 44 35 4
a 35 36 2
a 36 35 2
a 36 45 4
a 45 36 4
a 37 46 1
a 46 37 1
a 37 38 9
a 38 37 9
a 38 47 2
a 47 38 2
a 38 39 9
a 39 38 9
a 39 48 9
a 48 39 9
a 39 40 2
a 40 39 2
a 40 49 6
a 49 40 6
a 40 41 7
a 41 40 7
a 41 50 9
a 50 41 9
a 41 42 8
a 42 41 8
a 42 51 10
a 51 42 10
a 42 43 5
a 43 42 5
a 43 44 3
a 44 43 3
a 44 53 6
a 53 44 6
a 44 45 5
a 45 44 5
a 45 54 9
a 54 45 9
a 46 55 1
a 55 46 1
a 46 47 10
a 47 46 10
a 47 56 10
a 56 47 10
a 47 48 6
a 48 47 6
a 48 57 8
a 57 48 8
a 48 49 3
a 49 48 3
a 49 50 9
a 50 49 9
a 50 59 6
a 59 50 6
a 50 51 9
a 51 50 9
a 51 60 7
a 60 51 7
a 53 62 2
a 62 53 2
a 53 54 9
a 54 53 9
a 54 63 4
a 63 54 4
a 55 64 1
a 64 55 1
a 55 56 8
a 56 55 8
a 56 65 3
a 65 56 3
a 56 57 1
a 57 56 1
a 57 66 8
a 66 57 8
a 59 68 2
a 68 59 2
a 59 60 3
a 60 59 3
a 60 69 6
a 69 60 6
a 60 61 5
a 61 60 5
a 61 70 9
a 70 61 9
a 61 62 1
a 62 61 1
a 62 71 9
a 71 62 9
a 62 63 9
a 63 62 9
a 63 72 6
a 72 63 6
a 64 73 3
a 73 64 3
a 64 65 2
a 65 64 2
a 65 66 8
a 66 65 8
a 66 75 9
a 75 66 9
a 66 67 8
a 67 66 8
a 67 76 7
a 76 67 7
a 67 68 7
a 68 67 7
a 68 77 10
a 77 68 10
a 68 69 2
a 69 68 2
a 69 78 9
a 78 69 9
a 69 70 8
a 70 69 8
a 70 79 7
a 79 70 7
a 70 71 10
a 71 70 10
a 71 80 5
a 80 71 5
a 71 72 6
a 72 71 6
a 72 81 3
a 81 72 3
a 75 76 7
a 76 75 7
a 76 77 7
a 77 76 7
a 77 78 1
a 78 77 1
a 78 79 1
a 79 78 1
a 79 80 9
a 80 79 9
a 80 81 8
a 81 80 8
